(set-logic ALL)
(declare-const n_VAR Int)
(assert (not (< n_VAR 0)))
(assert (not (= n_VAR 0)))
(assert (not (= n_VAR 1)))
(assert (not (< (- n_VAR 1) 0)))
(assert (not (= (- n_VAR 1) 0)))
(assert (not (= (- n_VAR 1) 1)))
(assert (not (< (- (- n_VAR 1) 1) 0)))
(assert (not (= (- (- n_VAR 1) 1) 0)))
(assert (not (= (- (- n_VAR 1) 1) 1)))
(assert (not (< (- (- (- n_VAR 1) 1) 1) 0)))
(assert (not (= (- (- (- n_VAR 1) 1) 1) 0)))
(assert (not (= (- (- (- n_VAR 1) 1) 1) 1)))
(assert (not (< (- (- (- (- n_VAR 1) 1) 1) 1) 0)))
(assert (not (= (- (- (- (- n_VAR 1) 1) 1) 1) 0)))
(assert (not (= (- (- (- (- n_VAR 1) 1) 1) 1) 1)))
(assert (not (< (- (- (- (- (- n_VAR 1) 1) 1) 1) 1) 0)))
(assert (not (= (- (- (- (- (- n_VAR 1) 1) 1) 1) 1) 0)))
(assert (not (= (- (- (- (- (- n_VAR 1) 1) 1) 1) 1) 1)))
(assert (not (< (- (- (- (- (- (- n_VAR 1) 1) 1) 1) 1) 1) 0)))
(assert (not (= (- (- (- (- (- (- n_VAR 1) 1) 1) 1) 1) 1) 0)))
(assert (not (= (- (- (- (- (- (- n_VAR 1) 1) 1) 1) 1) 1) 1)))
(assert (not (< (- (- (- (- (- (- (- n_VAR 1) 1) 1) 1) 1) 1) 1) 0)))
(assert (not (= (- (- (- (- (- (- (- n_VAR 1) 1) 1) 1) 1) 1) 1) 0)))
(assert (not (= (- (- (- (- (- (- (- n_VAR 1) 1) 1) 1) 1) 1) 1) 1)))
(assert (not (< (- (- (- (- (- (- (- (- n_VAR 1) 1) 1) 1) 1) 1) 1) 1) 0)))
(assert (not (= (- (- (- (- (- (- (- (- n_VAR 1) 1) 1) 1) 1) 1) 1) 1) 0)))
(assert (not (= (- (- (- (- (- (- (- (- n_VAR 1) 1) 1) 1) 1) 1) 1) 1) 1)))
(assert (not (< (- (- (- (- (- (- (- (- (- n_VAR 1) 1) 1) 1) 1) 1) 1) 1) 1) 0)))
(assert (not (= (- (- (- (- (- (- (- (- (- n_VAR 1) 1) 1) 1) 1) 1) 1) 1) 1) 0)))
(assert (not (= (- (- (- (- (- (- (- (- (- n_VAR 1) 1) 1) 1) 1) 1) 1) 1) 1) 1)))
(assert (not (< (- (- (- (- (- (- (- (- (- (- n_VAR 1) 1) 1) 1) 1) 1) 1) 1) 1) 1) 0)))
(assert (not (= (- (- (- (- (- (- (- (- (- (- n_VAR 1) 1) 1) 1) 1) 1) 1) 1) 1) 1) 0)))
(assert (not (= (- (- (- (- (- (- (- (- (- (- n_VAR 1) 1) 1) 1) 1) 1) 1) 1) 1) 1) 1)))
(assert (not (< (- (- (- (- (- (- (- (- (- (- (- n_VAR 1) 1) 1) 1) 1) 1) 1) 1) 1) 1) 1) 0)))
(assert (not (= (- (- (- (- (- (- (- (- (- (- (- n_VAR 1) 1) 1) 1) 1) 1) 1) 1) 1) 1) 1) 0)))
(assert (not (= (- (- (- (- (- (- (- (- (- (- (- n_VAR 1) 1) 1) 1) 1) 1) 1) 1) 1) 1) 1) 1)))
(assert (not (< (- (- (- (- (- (- (- (- (- (- (- (- n_VAR 1) 1) 1) 1) 1) 1) 1) 1) 1) 1) 1) 1) 0)))
(assert (not (= (- (- (- (- (- (- (- (- (- (- (- (- n_VAR 1) 1) 1) 1) 1) 1) 1) 1) 1) 1) 1) 1) 0)))
(assert (not (= (- (- (- (- (- (- (- (- (- (- (- (- n_VAR 1) 1) 1) 1) 1) 1) 1) 1) 1) 1) 1) 1) 1)))
(assert (not (< (- (- (- (- (- (- (- (- (- (- (- (- (- n_VAR 1) 1) 1) 1) 1) 1) 1) 1) 1) 1) 1) 1) 1) 0)))
(assert (not (= (- (- (- (- (- (- (- (- (- (- (- (- (- n_VAR 1) 1) 1) 1) 1) 1) 1) 1) 1) 1) 1) 1) 1) 0)))
(assert (not (= (- (- (- (- (- (- (- (- (- (- (- (- (- n_VAR 1) 1) 1) 1) 1) 1) 1) 1) 1) 1) 1) 1) 1) 1)))
(assert (not (< (- (- (- (- (- (- (- (- (- (- (- (- (- (- n_VAR 1) 1) 1) 1) 1) 1) 1) 1) 1) 1) 1) 1) 1) 1) 0)))
(assert (not (= (- (- (- (- (- (- (- (- (- (- (- (- (- (- n_VAR 1) 1) 1) 1) 1) 1) 1) 1) 1) 1) 1) 1) 1) 1) 0)))
(assert (not (= (- (- (- (- (- (- (- (- (- (- (- (- (- (- n_VAR 1) 1) 1) 1) 1) 1) 1) 1) 1) 1) 1) 1) 1) 1) 1)))
(assert (not (< (- (- (- (- (- (- (- (- (- (- (- (- (- (- (- n_VAR 1) 1) 1) 1) 1) 1) 1) 1) 1) 1) 1) 1) 1) 1) 1) 0)))
(assert (not (= (- (- (- (- (- (- (- (- (- (- (- (- (- (- (- n_VAR 1) 1) 1) 1) 1) 1) 1) 1) 1) 1) 1) 1) 1) 1) 1) 0)))
(assert (not (= (- (- (- (- (- (- (- (- (- (- (- (- (- (- (- n_VAR 1) 1) 1) 1) 1) 1) 1) 1) 1) 1) 1) 1) 1) 1) 1) 1)))
(assert (not (< (- (- (- (- (- (- (- (- (- (- (- (- (- (- (- (- n_VAR 1) 1) 1) 1) 1) 1) 1) 1) 1) 1) 1) 1) 1) 1) 1) 1) 0)))
(assert (not (= (- (- (- (- (- (- (- (- (- (- (- (- (- (- (- (- n_VAR 1) 1) 1) 1) 1) 1) 1) 1) 1) 1) 1) 1) 1) 1) 1) 1) 0)))
(assert (not (= (- (- (- (- (- (- (- (- (- (- (- (- (- (- (- (- n_VAR 1) 1) 1) 1) 1) 1) 1) 1) 1) 1) 1) 1) 1) 1) 1) 1) 1)))
(assert (not (< (- (- (- (- (- (- (- (- (- (- (- (- (- (- (- (- (- n_VAR 1) 1) 1) 1) 1) 1) 1) 1) 1) 1) 1) 1) 1) 1) 1) 1) 1) 0)))
(assert (not (= (- (- (- (- (- (- (- (- (- (- (- (- (- (- (- (- (- n_VAR 1) 1) 1) 1) 1) 1) 1) 1) 1) 1) 1) 1) 1) 1) 1) 1) 1) 0)))
(assert (not (= (- (- (- (- (- (- (- (- (- (- (- (- (- (- (- (- (- n_VAR 1) 1) 1) 1) 1) 1) 1) 1) 1) 1) 1) 1) 1) 1) 1) 1) 1) 1)))
(assert (not (< (- (- (- (- (- (- (- (- (- (- (- (- (- (- (- (- (- (- n_VAR 1) 1) 1) 1) 1) 1) 1) 1) 1) 1) 1) 1) 1) 1) 1) 1) 1) 1) 0)))
(assert (not (= (- (- (- (- (- (- (- (- (- (- (- (- (- (- (- (- (- (- n_VAR 1) 1) 1) 1) 1) 1) 1) 1) 1) 1) 1) 1) 1) 1) 1) 1) 1) 1) 0)))
(assert (not (= (- (- (- (- (- (- (- (- (- (- (- (- (- (- (- (- (- (- n_VAR 1) 1) 1) 1) 1) 1) 1) 1) 1) 1) 1) 1) 1) 1) 1) 1) 1) 1) 1)))
(assert (not (< (- (- (- (- (- (- (- (- (- (- (- (- (- (- (- (- (- (- (- n_VAR 1) 1) 1) 1) 1) 1) 1) 1) 1) 1) 1) 1) 1) 1) 1) 1) 1) 1) 1) 0)))
(assert (not (= (- (- (- (- (- (- (- (- (- (- (- (- (- (- (- (- (- (- (- n_VAR 1) 1) 1) 1) 1) 1) 1) 1) 1) 1) 1) 1) 1) 1) 1) 1) 1) 1) 1) 0)))
(assert (not (= (- (- (- (- (- (- (- (- (- (- (- (- (- (- (- (- (- (- (- n_VAR 1) 1) 1) 1) 1) 1) 1) 1) 1) 1) 1) 1) 1) 1) 1) 1) 1) 1) 1) 1)))
(assert (not (< (- (- (- (- (- (- (- (- (- (- (- (- (- (- (- (- (- (- (- (- n_VAR 1) 1) 1) 1) 1) 1) 1) 1) 1) 1) 1) 1) 1) 1) 1) 1) 1) 1) 1) 1) 0)))
(assert (not (= (- (- (- (- (- (- (- (- (- (- (- (- (- (- (- (- (- (- (- (- n_VAR 1) 1) 1) 1) 1) 1) 1) 1) 1) 1) 1) 1) 1) 1) 1) 1) 1) 1) 1) 1) 0)))
(assert (not (= (- (- (- (- (- (- (- (- (- (- (- (- (- (- (- (- (- (- (- (- n_VAR 1) 1) 1) 1) 1) 1) 1) 1) 1) 1) 1) 1) 1) 1) 1) 1) 1) 1) 1) 1) 1)))
(assert (not (< (- (- (- (- (- (- (- (- (- (- (- (- (- (- (- (- (- (- (- (- (- n_VAR 1) 1) 1) 1) 1) 1) 1) 1) 1) 1) 1) 1) 1) 1) 1) 1) 1) 1) 1) 1) 1) 0)))
(assert (not (= (- (- (- (- (- (- (- (- (- (- (- (- (- (- (- (- (- (- (- (- (- n_VAR 1) 1) 1) 1) 1) 1) 1) 1) 1) 1) 1) 1) 1) 1) 1) 1) 1) 1) 1) 1) 1) 0)))
(assert (not (= (- (- (- (- (- (- (- (- (- (- (- (- (- (- (- (- (- (- (- (- (- n_VAR 1) 1) 1) 1) 1) 1) 1) 1) 1) 1) 1) 1) 1) 1) 1) 1) 1) 1) 1) 1) 1) 1)))
(assert (not (< (- (- (- (- (- (- (- (- (- (- (- (- (- (- (- (- (- (- (- (- (- (- n_VAR 1) 1) 1) 1) 1) 1) 1) 1) 1) 1) 1) 1) 1) 1) 1) 1) 1) 1) 1) 1) 1) 1) 0)))
(assert (not (= (- (- (- (- (- (- (- (- (- (- (- (- (- (- (- (- (- (- (- (- (- (- n_VAR 1) 1) 1) 1) 1) 1) 1) 1) 1) 1) 1) 1) 1) 1) 1) 1) 1) 1) 1) 1) 1) 1) 0)))
(assert (not (= (- (- (- (- (- (- (- (- (- (- (- (- (- (- (- (- (- (- (- (- (- (- n_VAR 1) 1) 1) 1) 1) 1) 1) 1) 1) 1) 1) 1) 1) 1) 1) 1) 1) 1) 1) 1) 1) 1) 1)))
(assert (not (< (- (- (- (- (- (- (- (- (- (- (- (- (- (- (- (- (- (- (- (- (- (- (- n_VAR 1) 1) 1) 1) 1) 1) 1) 1) 1) 1) 1) 1) 1) 1) 1) 1) 1) 1) 1) 1) 1) 1) 1) 0)))
(assert (not (= (- (- (- (- (- (- (- (- (- (- (- (- (- (- (- (- (- (- (- (- (- (- (- n_VAR 1) 1) 1) 1) 1) 1) 1) 1) 1) 1) 1) 1) 1) 1) 1) 1) 1) 1) 1) 1) 1) 1) 1) 0)))
(assert (not (= (- (- (- (- (- (- (- (- (- (- (- (- (- (- (- (- (- (- (- (- (- (- (- n_VAR 1) 1) 1) 1) 1) 1) 1) 1) 1) 1) 1) 1) 1) 1) 1) 1) 1) 1) 1) 1) 1) 1) 1) 1)))
(assert (not (< (- (- (- (- (- (- (- (- (- (- (- (- (- (- (- (- (- (- (- (- (- (- (- (- n_VAR 1) 1) 1) 1) 1) 1) 1) 1) 1) 1) 1) 1) 1) 1) 1) 1) 1) 1) 1) 1) 1) 1) 1) 1) 0)))
(assert (not (= (- (- (- (- (- (- (- (- (- (- (- (- (- (- (- (- (- (- (- (- (- (- (- (- n_VAR 1) 1) 1) 1) 1) 1) 1) 1) 1) 1) 1) 1) 1) 1) 1) 1) 1) 1) 1) 1) 1) 1) 1) 1) 0)))
(assert (not (= (- (- (- (- (- (- (- (- (- (- (- (- (- (- (- (- (- (- (- (- (- (- (- (- n_VAR 1) 1) 1) 1) 1) 1) 1) 1) 1) 1) 1) 1) 1) 1) 1) 1) 1) 1) 1) 1) 1) 1) 1) 1) 1)))
(assert (not (< (- (- (- (- (- (- (- (- (- (- (- (- (- (- (- (- (- (- (- (- (- (- (- (- (- n_VAR 1) 1) 1) 1) 1) 1) 1) 1) 1) 1) 1) 1) 1) 1) 1) 1) 1) 1) 1) 1) 1) 1) 1) 1) 1) 0)))
(assert (not (= (- (- (- (- (- (- (- (- (- (- (- (- (- (- (- (- (- (- (- (- (- (- (- (- (- n_VAR 1) 1) 1) 1) 1) 1) 1) 1) 1) 1) 1) 1) 1) 1) 1) 1) 1) 1) 1) 1) 1) 1) 1) 1) 1) 0)))
(assert (not (= (- (- (- (- (- (- (- (- (- (- (- (- (- (- (- (- (- (- (- (- (- (- (- (- (- n_VAR 1) 1) 1) 1) 1) 1) 1) 1) 1) 1) 1) 1) 1) 1) 1) 1) 1) 1) 1) 1) 1) 1) 1) 1) 1) 1)))
(assert (not (< (- (- (- (- (- (- (- (- (- (- (- (- (- (- (- (- (- (- (- (- (- (- (- (- (- (- n_VAR 1) 1) 1) 1) 1) 1) 1) 1) 1) 1) 1) 1) 1) 1) 1) 1) 1) 1) 1) 1) 1) 1) 1) 1) 1) 1) 0)))
(assert (not (= (- (- (- (- (- (- (- (- (- (- (- (- (- (- (- (- (- (- (- (- (- (- (- (- (- (- n_VAR 1) 1) 1) 1) 1) 1) 1) 1) 1) 1) 1) 1) 1) 1) 1) 1) 1) 1) 1) 1) 1) 1) 1) 1) 1) 1) 0)))
(assert (not (= (- (- (- (- (- (- (- (- (- (- (- (- (- (- (- (- (- (- (- (- (- (- (- (- (- (- n_VAR 1) 1) 1) 1) 1) 1) 1) 1) 1) 1) 1) 1) 1) 1) 1) 1) 1) 1) 1) 1) 1) 1) 1) 1) 1) 1) 1)))
(assert (not (< (- (- (- (- (- (- (- (- (- (- (- (- (- (- (- (- (- (- (- (- (- (- (- (- (- (- (- n_VAR 1) 1) 1) 1) 1) 1) 1) 1) 1) 1) 1) 1) 1) 1) 1) 1) 1) 1) 1) 1) 1) 1) 1) 1) 1) 1) 1) 0)))
(assert (not (= (- (- (- (- (- (- (- (- (- (- (- (- (- (- (- (- (- (- (- (- (- (- (- (- (- (- (- n_VAR 1) 1) 1) 1) 1) 1) 1) 1) 1) 1) 1) 1) 1) 1) 1) 1) 1) 1) 1) 1) 1) 1) 1) 1) 1) 1) 1) 0)))
(assert (not (= (- (- (- (- (- (- (- (- (- (- (- (- (- (- (- (- (- (- (- (- (- (- (- (- (- (- (- n_VAR 1) 1) 1) 1) 1) 1) 1) 1) 1) 1) 1) 1) 1) 1) 1) 1) 1) 1) 1) 1) 1) 1) 1) 1) 1) 1) 1) 1)))
(assert (not (< (- (- (- (- (- (- (- (- (- (- (- (- (- (- (- (- (- (- (- (- (- (- (- (- (- (- (- (- n_VAR 1) 1) 1) 1) 1) 1) 1) 1) 1) 1) 1) 1) 1) 1) 1) 1) 1) 1) 1) 1) 1) 1) 1) 1) 1) 1) 1) 1) 0)))
(assert (not (= (- (- (- (- (- (- (- (- (- (- (- (- (- (- (- (- (- (- (- (- (- (- (- (- (- (- (- (- n_VAR 1) 1) 1) 1) 1) 1) 1) 1) 1) 1) 1) 1) 1) 1) 1) 1) 1) 1) 1) 1) 1) 1) 1) 1) 1) 1) 1) 1) 0)))
(assert (not (= (- (- (- (- (- (- (- (- (- (- (- (- (- (- (- (- (- (- (- (- (- (- (- (- (- (- (- (- n_VAR 1) 1) 1) 1) 1) 1) 1) 1) 1) 1) 1) 1) 1) 1) 1) 1) 1) 1) 1) 1) 1) 1) 1) 1) 1) 1) 1) 1) 1)))
(assert (not (< (- (- (- (- (- (- (- (- (- (- (- (- (- (- (- (- (- (- (- (- (- (- (- (- (- (- (- (- (- n_VAR 1) 1) 1) 1) 1) 1) 1) 1) 1) 1) 1) 1) 1) 1) 1) 1) 1) 1) 1) 1) 1) 1) 1) 1) 1) 1) 1) 1) 1) 0)))
(assert (not (= (- (- (- (- (- (- (- (- (- (- (- (- (- (- (- (- (- (- (- (- (- (- (- (- (- (- (- (- (- n_VAR 1) 1) 1) 1) 1) 1) 1) 1) 1) 1) 1) 1) 1) 1) 1) 1) 1) 1) 1) 1) 1) 1) 1) 1) 1) 1) 1) 1) 1) 0)))
(assert (not (= (- (- (- (- (- (- (- (- (- (- (- (- (- (- (- (- (- (- (- (- (- (- (- (- (- (- (- (- (- n_VAR 1) 1) 1) 1) 1) 1) 1) 1) 1) 1) 1) 1) 1) 1) 1) 1) 1) 1) 1) 1) 1) 1) 1) 1) 1) 1) 1) 1) 1) 1)))
(assert (not (< (- (- (- (- (- (- (- (- (- (- (- (- (- (- (- (- (- (- (- (- (- (- (- (- (- (- (- (- (- (- n_VAR 1) 1) 1) 1) 1) 1) 1) 1) 1) 1) 1) 1) 1) 1) 1) 1) 1) 1) 1) 1) 1) 1) 1) 1) 1) 1) 1) 1) 1) 1) 0)))
(assert (not (= (- (- (- (- (- (- (- (- (- (- (- (- (- (- (- (- (- (- (- (- (- (- (- (- (- (- (- (- (- (- n_VAR 1) 1) 1) 1) 1) 1) 1) 1) 1) 1) 1) 1) 1) 1) 1) 1) 1) 1) 1) 1) 1) 1) 1) 1) 1) 1) 1) 1) 1) 1) 0)))
(assert (not (= (- (- (- (- (- (- (- (- (- (- (- (- (- (- (- (- (- (- (- (- (- (- (- (- (- (- (- (- (- (- n_VAR 1) 1) 1) 1) 1) 1) 1) 1) 1) 1) 1) 1) 1) 1) 1) 1) 1) 1) 1) 1) 1) 1) 1) 1) 1) 1) 1) 1) 1) 1) 1)))
(assert (not (< (- (- (- (- (- (- (- (- (- (- (- (- (- (- (- (- (- (- (- (- (- (- (- (- (- (- (- (- (- (- (- n_VAR 1) 1) 1) 1) 1) 1) 1) 1) 1) 1) 1) 1) 1) 1) 1) 1) 1) 1) 1) 1) 1) 1) 1) 1) 1) 1) 1) 1) 1) 1) 1) 0)))
(assert (not (= (- (- (- (- (- (- (- (- (- (- (- (- (- (- (- (- (- (- (- (- (- (- (- (- (- (- (- (- (- (- (- n_VAR 1) 1) 1) 1) 1) 1) 1) 1) 1) 1) 1) 1) 1) 1) 1) 1) 1) 1) 1) 1) 1) 1) 1) 1) 1) 1) 1) 1) 1) 1) 1) 0)))
(assert (not (= (- (- (- (- (- (- (- (- (- (- (- (- (- (- (- (- (- (- (- (- (- (- (- (- (- (- (- (- (- (- (- n_VAR 1) 1) 1) 1) 1) 1) 1) 1) 1) 1) 1) 1) 1) 1) 1) 1) 1) 1) 1) 1) 1) 1) 1) 1) 1) 1) 1) 1) 1) 1) 1) 1)))
(assert (not (< (- (- (- (- (- (- (- (- (- (- (- (- (- (- (- (- (- (- (- (- (- (- (- (- (- (- (- (- (- (- (- (- n_VAR 1) 1) 1) 1) 1) 1) 1) 1) 1) 1) 1) 1) 1) 1) 1) 1) 1) 1) 1) 1) 1) 1) 1) 1) 1) 1) 1) 1) 1) 1) 1) 1) 0)))
(assert (not (= (- (- (- (- (- (- (- (- (- (- (- (- (- (- (- (- (- (- (- (- (- (- (- (- (- (- (- (- (- (- (- (- n_VAR 1) 1) 1) 1) 1) 1) 1) 1) 1) 1) 1) 1) 1) 1) 1) 1) 1) 1) 1) 1) 1) 1) 1) 1) 1) 1) 1) 1) 1) 1) 1) 1) 0)))
(assert (not (= (- (- (- (- (- (- (- (- (- (- (- (- (- (- (- (- (- (- (- (- (- (- (- (- (- (- (- (- (- (- (- (- n_VAR 1) 1) 1) 1) 1) 1) 1) 1) 1) 1) 1) 1) 1) 1) 1) 1) 1) 1) 1) 1) 1) 1) 1) 1) 1) 1) 1) 1) 1) 1) 1) 1) 1)))
(assert (not (< (- (- (- (- (- (- (- (- (- (- (- (- (- (- (- (- (- (- (- (- (- (- (- (- (- (- (- (- (- (- (- (- (- n_VAR 1) 1) 1) 1) 1) 1) 1) 1) 1) 1) 1) 1) 1) 1) 1) 1) 1) 1) 1) 1) 1) 1) 1) 1) 1) 1) 1) 1) 1) 1) 1) 1) 1) 0)))
(assert (not (= (- (- (- (- (- (- (- (- (- (- (- (- (- (- (- (- (- (- (- (- (- (- (- (- (- (- (- (- (- (- (- (- (- n_VAR 1) 1) 1) 1) 1) 1) 1) 1) 1) 1) 1) 1) 1) 1) 1) 1) 1) 1) 1) 1) 1) 1) 1) 1) 1) 1) 1) 1) 1) 1) 1) 1) 1) 0)))
(assert (not (= (- (- (- (- (- (- (- (- (- (- (- (- (- (- (- (- (- (- (- (- (- (- (- (- (- (- (- (- (- (- (- (- (- n_VAR 1) 1) 1) 1) 1) 1) 1) 1) 1) 1) 1) 1) 1) 1) 1) 1) 1) 1) 1) 1) 1) 1) 1) 1) 1) 1) 1) 1) 1) 1) 1) 1) 1) 1)))
(assert (not (< (- (- (- (- (- (- (- (- (- (- (- (- (- (- (- (- (- (- (- (- (- (- (- (- (- (- (- (- (- (- (- (- (- (- n_VAR 1) 1) 1) 1) 1) 1) 1) 1) 1) 1) 1) 1) 1) 1) 1) 1) 1) 1) 1) 1) 1) 1) 1) 1) 1) 1) 1) 1) 1) 1) 1) 1) 1) 1) 0)))
(assert (not (= (- (- (- (- (- (- (- (- (- (- (- (- (- (- (- (- (- (- (- (- (- (- (- (- (- (- (- (- (- (- (- (- (- (- n_VAR 1) 1) 1) 1) 1) 1) 1) 1) 1) 1) 1) 1) 1) 1) 1) 1) 1) 1) 1) 1) 1) 1) 1) 1) 1) 1) 1) 1) 1) 1) 1) 1) 1) 1) 0)))
(assert (not (= (- (- (- (- (- (- (- (- (- (- (- (- (- (- (- (- (- (- (- (- (- (- (- (- (- (- (- (- (- (- (- (- (- (- n_VAR 1) 1) 1) 1) 1) 1) 1) 1) 1) 1) 1) 1) 1) 1) 1) 1) 1) 1) 1) 1) 1) 1) 1) 1) 1) 1) 1) 1) 1) 1) 1) 1) 1) 1) 1)))
(assert (not (< (- (- (- (- (- (- (- (- (- (- (- (- (- (- (- (- (- (- (- (- (- (- (- (- (- (- (- (- (- (- (- (- (- (- (- n_VAR 1) 1) 1) 1) 1) 1) 1) 1) 1) 1) 1) 1) 1) 1) 1) 1) 1) 1) 1) 1) 1) 1) 1) 1) 1) 1) 1) 1) 1) 1) 1) 1) 1) 1) 1) 0)))
(assert (not (= (- (- (- (- (- (- (- (- (- (- (- (- (- (- (- (- (- (- (- (- (- (- (- (- (- (- (- (- (- (- (- (- (- (- (- n_VAR 1) 1) 1) 1) 1) 1) 1) 1) 1) 1) 1) 1) 1) 1) 1) 1) 1) 1) 1) 1) 1) 1) 1) 1) 1) 1) 1) 1) 1) 1) 1) 1) 1) 1) 1) 0)))
(assert (not (= (- (- (- (- (- (- (- (- (- (- (- (- (- (- (- (- (- (- (- (- (- (- (- (- (- (- (- (- (- (- (- (- (- (- (- n_VAR 1) 1) 1) 1) 1) 1) 1) 1) 1) 1) 1) 1) 1) 1) 1) 1) 1) 1) 1) 1) 1) 1) 1) 1) 1) 1) 1) 1) 1) 1) 1) 1) 1) 1) 1) 1)))
(assert (not (< (- (- (- (- (- (- (- (- (- (- (- (- (- (- (- (- (- (- (- (- (- (- (- (- (- (- (- (- (- (- (- (- (- (- (- (- n_VAR 1) 1) 1) 1) 1) 1) 1) 1) 1) 1) 1) 1) 1) 1) 1) 1) 1) 1) 1) 1) 1) 1) 1) 1) 1) 1) 1) 1) 1) 1) 1) 1) 1) 1) 1) 1) 0)))
(assert (not (= (- (- (- (- (- (- (- (- (- (- (- (- (- (- (- (- (- (- (- (- (- (- (- (- (- (- (- (- (- (- (- (- (- (- (- (- n_VAR 1) 1) 1) 1) 1) 1) 1) 1) 1) 1) 1) 1) 1) 1) 1) 1) 1) 1) 1) 1) 1) 1) 1) 1) 1) 1) 1) 1) 1) 1) 1) 1) 1) 1) 1) 1) 0)))
(assert (not (= (- (- (- (- (- (- (- (- (- (- (- (- (- (- (- (- (- (- (- (- (- (- (- (- (- (- (- (- (- (- (- (- (- (- (- (- n_VAR 1) 1) 1) 1) 1) 1) 1) 1) 1) 1) 1) 1) 1) 1) 1) 1) 1) 1) 1) 1) 1) 1) 1) 1) 1) 1) 1) 1) 1) 1) 1) 1) 1) 1) 1) 1) 1)))
(assert (not (< (- (- (- (- (- (- (- (- (- (- (- (- (- (- (- (- (- (- (- (- (- (- (- (- (- (- (- (- (- (- (- (- (- (- (- (- (- n_VAR 1) 1) 1) 1) 1) 1) 1) 1) 1) 1) 1) 1) 1) 1) 1) 1) 1) 1) 1) 1) 1) 1) 1) 1) 1) 1) 1) 1) 1) 1) 1) 1) 1) 1) 1) 1) 1) 0)))
(assert (not (= (- (- (- (- (- (- (- (- (- (- (- (- (- (- (- (- (- (- (- (- (- (- (- (- (- (- (- (- (- (- (- (- (- (- (- (- (- n_VAR 1) 1) 1) 1) 1) 1) 1) 1) 1) 1) 1) 1) 1) 1) 1) 1) 1) 1) 1) 1) 1) 1) 1) 1) 1) 1) 1) 1) 1) 1) 1) 1) 1) 1) 1) 1) 1) 0)))
(assert (not (= (- (- (- (- (- (- (- (- (- (- (- (- (- (- (- (- (- (- (- (- (- (- (- (- (- (- (- (- (- (- (- (- (- (- (- (- (- n_VAR 1) 1) 1) 1) 1) 1) 1) 1) 1) 1) 1) 1) 1) 1) 1) 1) 1) 1) 1) 1) 1) 1) 1) 1) 1) 1) 1) 1) 1) 1) 1) 1) 1) 1) 1) 1) 1) 1)))
(check-sat)
(get-value (n_VAR))
